SAT
-62 49 83 -81 100 -76 -78 69 -42 -54 -64 10 -56 -34 87 -52 -65 19 92 -72 63 79 57 13 -14 96 22 -75 -60 -24 -94 -51 50 -91 55 -29 85 -41 -6 66 -17 67 -58 31 39 -12 9 97 84 -28 -7 59 5 -27 -40 88 23 -73 89 -20 47 68 16 -4 -53 -80 -48 46 -86 32 11 98 -93 -70 -36 61 3 33 38 -2 -26 -95 45 -25 -90 -71 -74 -30 -43 21 -99 1 -18 8 82 -15 44 35 77 -37 0
